48734 280672
48734 281344
48846 277312
48986 280000
49574 280140
65842 280924
67354 280924
67382 281344
68278 278908
68670 278656
68866 279328
68894 280924
68922 278236
69314 278908
69398 278656
69538 281596
69594 279580
70182 279328
70294 281344
70462 278656
